qbf_easy_train/easy_5056_SAT.qdimacs
p cnf 31 85
a 25 14 0
e 1 2 3 4 5 6 7 8 9 10 11 12 13 15 16 17 18 19 20 21 22 23 24 26 27 28 29 30 31 0
2 3 -4 0
-2 -3 -4 0
2 -3 4 0
-2 3 4 0
-1 -4 -5 0
1 4 -5 0
-1 4 5 0
1 -4 5 0
-1 6 -7 0
1 -6 -7 0
-1 -6 7 0
1 6 7 0
8 -6 0
8 7 0
6 -7 -8 0
-10 -8 0
-10 -9 0
8 9 10 0
-11 -5 0
-11 -10 0
5 10 11 0
-13 -12 0
-13 10 0
12 -10 13 0
15 13 0
15 -14 0
-13 14 -15 0
-16 -11 0
-16 -15 0
11 15 16 0
4 -12 -17 0
-4 12 -17 0
4 12 17 0
-4 -12 17 0
18 16 0
18 -17 0
-16 17 -18 0
-19 -7 0
-19 4 0
7 -4 19 0
-20 -18 0
-20 -19 0
18 19 20 0
-7 -10 -21 0
7 10 -21 0
-7 10 21 0
7 -10 21 0
22 -20 0
22 -21 0
20 21 -22 0
-24 -3 0
-24 -23 0
3 23 24 0
23 7 -25 0
-23 -7 -25 0
23 -7 25 0
-23 7 25 0
-26 -1 0
-26 25 0
1 -25 26 0
-9 -26 -27 0
9 26 -27 0
-9 26 27 0
9 -26 27 0
28 24 0
28 -27 0
-24 27 -28 0
-29 10 0
-29 -7 0
-10 7 29 0
30 28 0
30 29 0
-28 -29 -30 0
31 22 0
31 -30 0
-22 30 -31 0
24 6 -22 -27 -14 0
-3 30 29 15 -22 -12 0
-27 -22 -6 14 23 -16 12 0
19 21 8 0
-29 -26 16 -4 0
-3 17 28 6 7 -1 -29 0
-6 -15 -23 0
-15 23 -17 26 -5 -1 0
31 0
