sat_easy_train/easy_5056_SAT.dimacs
p cnf 110 364
-1 -2 -3 0
1 2 -3 0
-1 2 3 0
1 -2 3 0
6 -4 0
6 -5 0
4 5 -6 0
-8 6 0
-8 -7 0
-6 7 8 0
9 -8 0
9 -1 0
8 1 -9 0
15 13 0
15 14 0
-13 -14 -15 0
-12 -15 -16 0
12 15 -16 0
-12 15 16 0
12 -15 16 0
16 -17 -18 0
-16 17 -18 0
16 17 18 0
-16 -17 18 0
18 19 -20 0
-18 -19 -20 0
18 -19 20 0
-18 19 20 0
21 11 0
21 20 0
-11 -20 -21 0
22 10 0
22 -21 0
-10 21 -22 0
-23 -2 0
-23 16 0
2 -16 23 0
12 4 -24 0
-12 -4 -24 0
12 -4 24 0
-12 4 24 0
-15 -24 -25 0
15 24 -25 0
-15 24 25 0
15 -24 25 0
25 -19 -26 0
-25 19 -26 0
25 19 26 0
-25 -19 26 0
27 26 0
27 -15 0
-26 15 -27 0
-23 -27 -28 0
23 27 -28 0
-23 27 28 0
23 -27 28 0
-29 -22 0
-29 28 0
22 -28 29 0
30 -14 0
30 -7 0
14 7 -30 0
31 -12 0
31 -30 0
12 30 -31 0
-32 -29 0
-32 31 0
29 -31 32 0
-9 -32 -33 0
9 32 -33 0
-9 32 33 0
9 -32 33 0
34 -3 0
34 -33 0
3 33 -34 0
-35 25 0
-35 18 0
-25 -18 35 0
-18 35 -36 0
18 -35 -36 0
-18 -35 36 0
18 35 36 0
-37 15 0
-37 36 0
-15 -36 37 0
-38 24 0
-38 14 0
-24 -14 38 0
39 38 0
39 38 0
-38 -39 0
39 12 -40 0
-39 -12 -40 0
39 -12 40 0
-39 12 40 0
41 40 0
41 -14 0
-40 14 -41 0
42 -37 0
42 41 0
37 -41 -42 0
-43 -13 0
-43 30 0
13 -30 43 0
-44 -17 -45 0
44 17 -45 0
-44 17 45 0
44 -17 45 0
-46 -23 0
-46 -45 0
23 45 46 0
6 -45 -47 0
-6 45 -47 0
6 45 47 0
-6 -45 47 0
48 46 0
48 47 0
-46 -47 -48 0
-49 17 0
-49 36 0
-17 -36 49 0
50 -49 0
50 15 0
49 -15 -50 0
48 50 -51 0
-48 -50 -51 0
48 -50 51 0
-48 50 51 0
-52 1 0
-52 18 0
-1 -18 52 0
52 12 -53 0
-52 -12 -53 0
52 -12 53 0
-52 12 53 0
54 51 0
54 53 0
-51 -53 -54 0
19 -24 -55 0
-19 24 -55 0
19 24 55 0
-19 -24 55 0
-56 -54 0
-56 -55 0
54 55 56 0
-43 56 -57 0
43 -56 -57 0
-43 -56 57 0
43 56 57 0
-58 42 0
-58 57 0
-42 -57 58 0
60 59 0
60 32 0
-59 -32 -60 0
61 25 0
61 -26 0
-25 26 -61 0
-14 -5 -62 0
14 5 -62 0
-14 5 62 0
14 -5 62 0
63 18 0
63 62 0
-18 -62 -63 0
64 62 0
64 -19 0
-62 19 -64 0
65 63 0
65 -64 0
-63 64 -65 0
24 -25 -66 0
-24 25 -66 0
24 25 66 0
-24 -25 66 0
-67 -62 0
-67 11 0
62 -11 67 0
66 67 -68 0
-66 -67 -68 0
66 -67 68 0
-66 67 68 0
-69 -44 0
-69 13 0
44 -13 69 0
70 68 0
70 -69 0
-68 69 -70 0
71 65 0
71 -70 0
-65 70 -71 0
72 -61 0
72 -71 0
61 71 -72 0
73 -60 0
73 72 0
60 -72 -73 0
74 58 0
74 -73 0
-58 73 -74 0
-75 76 -77 0
75 -76 -77 0
-75 -76 77 0
75 76 77 0
45 77 -78 0
-45 -77 -78 0
45 -77 78 0
-45 77 78 0
79 74 0
79 -78 0
-74 78 -79 0
-80 34 0
-80 -79 0
-34 79 80 0
5 -23 -81 0
-5 23 -81 0
5 23 81 0
-5 -23 81 0
-82 -81 0
-82 4 0
81 -4 82 0
83 -76 0
83 15 0
76 -15 -83 0
84 75 0
84 83 0
-75 -83 -84 0
85 -82 0
85 -84 0
82 84 -85 0
86 -35 0
86 -18 0
35 18 -86 0
-87 -29 0
-87 19 0
29 -19 87 0
-24 88 0
24 88 0
89 -87 0
89 88 0
87 -88 -89 0
86 89 -90 0
-86 -89 -90 0
86 -89 90 0
-86 89 90 0
91 -85 0
91 -90 0
85 90 -91 0
75 -27 -92 0
-75 27 -92 0
75 27 92 0
-75 -27 92 0
-36 -4 -93 0
36 4 -93 0
-36 4 93 0
36 -4 93 0
-94 -92 0
-94 -93 0
92 93 94 0
-95 91 0
-95 94 0
-91 -94 95 0
96 7 0
96 4 0
-7 -4 -96 0
97 12 0
97 96 0
-12 -96 -97 0
98 -10 0
98 31 0
10 -31 -98 0
-99 -97 0
-99 -98 0
97 98 99 0
14 -10 -100 0
-14 10 -100 0
14 10 100 0
-14 -10 100 0
-77 -100 -101 0
77 100 -101 0
-77 100 101 0
77 -100 101 0
67 -101 -102 0
-67 101 -102 0
67 101 102 0
-67 -101 102 0
102 -27 -103 0
-102 27 -103 0
102 27 103 0
-102 -27 103 0
104 25 0
104 -19 0
-25 19 -104 0
49 -44 -105 0
-49 44 -105 0
49 44 105 0
-49 -44 105 0
104 105 -106 0
-104 -105 -106 0
104 -105 106 0
-104 105 106 0
-103 -106 -107 0
103 106 -107 0
-103 106 107 0
103 -106 107 0
99 -107 -108 0
-99 107 -108 0
99 107 108 0
-99 -107 108 0
-95 -108 -109 0
95 108 -109 0
-95 108 109 0
95 -108 109 0
110 -80 0
110 -109 0
80 109 -110 0
-8 -50 -53 -63 23 13 0
-41 -58 31 49 0
58 -45 -103 -39 84 -32 0
-15 29 79 -16 106 0
34 59 -41 19 109 0
-39 28 103 -25 72 0
5 -63 0
-94 43 78 -85 0
99 93 -51 -101 13 52 0
109 -39 -101 0
102 -34 -47 0
87 32 -109 -51 0
70 25 31 18 -71 12 0
97 -8 -9 -88 96 12 0
68 -91 -7 102 0
-77 -86 23 25 43 -71 0
-22 -38 -80 -66 -53 0
57 13 90 76 94 0
27 -9 38 66 0
103 33 -32 -44 0
-91 -103 -47 0
89 -41 -35 9 56 -45 0
-8 -48 -59 -18 66 87 0
70 103 0
-105 97 52 59 -18 0
22 43 0
56 44 7 97 49 -13 0
-78 65 85 26 74 -10 0
-41 -52 -96 78 61 30 0
24 -75 -74 0
-71 -29 -106 0
65 -36 -32 0
66 -107 25 0
-103 -88 42 -14 65 -95 0
-56 -13 7 -87 -1 0
64 70 0
93 -28 -95 -71 0
74 -22 0
-101 35 0
-56 -101 70 31 -37 0
5 -47 -35 0
-73 75 33 0
-32 76 -44 -67 0
25 14 79 -48 -78 -110 0
56 99 68 -91 0
4 -32 7 0
103 -98 -38 29 0
110 0
